--- Job sourceFile.gms Start 08/21/24 22:41:00 47.4.0 838fd78c WEX-WEI x86 64bit/MS Windows
--- Applying:
    C:\Program Files (x86)\GAMS\47\gmsprmNT.txt
--- GAMS Parameters defined
    Input C:\projects\itStud9Lp2024\gamsWorkSpace\sourceFile.gms
    PageSize 0
    ScrDir C:\projects\itStud9Lp2024\gamsWorkSpace\225b\
    SysDir "C:\Program Files (x86)\GAMS\47\"
    LogOption 3
    ErrMsg 1
    ErrorLog 99
    IDE 1
    LstTitleLeftAligned 1
Licensee: Course License                                 S240418|0002AO-GEN
          Stiftung Universitaet Hildesheim                          DCE3433
          C:\Program Files (x86)\GAMS\47\gamslice.txt
          License Admin: Julia Rieck, rieck@bwl.uni-hildesheim.de          
          Course license for use within the course and related course work
          The evaluation period of the license will expire on Oct 15, 2024
Processor information: 1 socket(s), 6 core(s), and 12 thread(s) available
GAMS 47.4.0   Copyright (C) 1987-2024 GAMS Development. All rights reserved
--- Starting compilation
--- sourceFile.gms(792) 3 Mb
--- Starting execution: elapsed 0:00:00.017
--- sourceFile.gms(719) 4 Mb
--- Generating MIP model optModel
--- sourceFile.gms(721) 31 Mb
---   37,820 rows  76,946 columns  391,517 non-zeroes
---   76,905 discrete-columns
--- Range statistics (absolute non-zero finite values)
--- RHS       [min, max] : [ 1.000E+00, 3.296E+04] - Zero values observed as well
--- Bound     [min, max] : [ 1.000E+00, 1.000E+00] - Zero values observed as well
--- Matrix    [min, max] : [ 3.000E-02, 8.000E+00]
--- Executing CPLEX (Solvelink=2): elapsed 0:00:00.893

IBM ILOG CPLEX   47.4.0 838fd78c Jul 30, 2024          WEI x86 64bit/MS Window

--- GAMS/CPLEX Link licensed for continuous and discrete problems.
--- GMO setup time: 0.00s
--- Space for names approximately 3.42 Mb
--- Use option 'names no' to turn use of names off
--- GMO memory 31.28 Mb (peak 31.87 Mb)
--- Dictionary memory 0.00 Mb
--- Cplex 22.1.1.0 link memory 1.90 Mb (peak 10.69 Mb)
--- Starting Cplex

Version identifier: 22.1.1.0 | 2022-11-27 | 9160aff4d
CPXPARAM_Advance                                 0
CPXPARAM_MIP_Display                             4
CPXPARAM_MIP_Pool_Capacity                       0
CPXPARAM_MIP_Tolerances_AbsMIPGap                0
CPXPARAM_MIP_Tolerances_MIPGap                   0.0080000000000000002
Generic callback                                 0x50
Tried aggregator 2 times.
MIP Presolve eliminated 26713 rows and 53875 columns.
MIP Presolve modified 34614 coefficients.
Aggregator did 429 substitutions.
Reduced MIP has 10557 rows, 22642 columns, and 196570 nonzeros.
Reduced MIP has 22520 binaries, 122 generals, 0 SOSs, and 0 indicators.
Presolve time = 0.22 sec. (267.41 ticks)
Found incumbent of value 1600.264000 after 0.55 sec. (626.00 ticks)
Probing fixed 597 vars, tightened 0 bounds.
Probing time = 0.11 sec. (31.90 ticks)
Tried aggregator 2 times.
Detecting symmetries...
MIP Presolve eliminated 3314 rows and 1250 columns.
Aggregator did 5 substitutions.
Reduced MIP has 7238 rows, 21387 columns, and 175577 nonzeros.
Reduced MIP has 21265 binaries, 122 generals, 0 SOSs, and 0 indicators.
Presolve time = 0.23 sec. (263.83 ticks)
Probing time = 0.08 sec. (20.78 ticks)
Clique table members: 106851.
MIP emphasis: balance optimality and feasibility.
MIP search method: dynamic search.
Parallel mode: deterministic, using up to 12 threads.
Parallel mode: deterministic, using up to 2 threads for parallel tasks at root LP.
Parallel mode: deterministic, using up to 10 threads for concurrent optimization:
 * Starting dual Simplex on 1 thread...
 * Starting Barrier on 8 threads...
 * Starting primal Simplex on 1 thread...
Tried aggregator 1 time.
LP Presolve eliminated 18 rows and 36 columns.
Aggregator did 5 substitutions.
Reduced LP has 7215 rows, 21346 columns, and 175513 nonzeros.
Presolve time = 0.03 sec. (21.96 ticks)
Initializing dual steep norms . . .

Iteration log . . .
Iteration:     1   Dual objective     =            90.684000
Perturbation started.
Iteration:   202   Dual objective     =            94.914000
Iteration:   548   Dual objective     =            99.204088
Iteration:   921   Dual objective     =           101.280437
Iteration:  1305   Dual objective     =           101.280488
Iteration:  1707   Dual objective     =           103.470520
Iteration:  2097   Dual objective     =           105.240560
Iteration:  2474   Dual objective     =           106.470602
Iteration:  2644   Dual objective     =           109.230698
Iteration:  2829   Dual objective     =           110.955517
Iteration:  2988   Dual objective     =           110.955621
Iteration:  3157   Dual objective     =           110.955753
Iteration:  3292   Dual objective     =           114.396048
Iteration:  3437   Dual objective     =           114.396621
Iteration:  3578   Dual objective     =           114.397513
Iteration:  3705   Dual objective     =           114.399974
Iteration:  3841   Dual objective     =           162.055868
Iteration:  4026   Dual objective     =           176.514032
Iteration:  4216   Dual objective     =           183.809083
Iteration:  4442   Dual objective     =           196.651907
Iteration:  4604   Dual objective     =           197.159822
Iteration:  4756   Dual objective     =           222.633997
Iteration:  4929   Dual objective     =           240.892197
Iteration:  5108   Dual objective     =           242.656137
Iteration:  5292   Dual objective     =           249.516426
Iteration:  5464   Dual objective     =           250.560619
Iteration:  5661   Dual objective     =           260.713529
Iteration:  5888   Dual objective     =           278.577496
Iteration:  6118   Dual objective     =           281.911626
Iteration:  6290   Dual objective     =           284.201766
Iteration:  6474   Dual objective     =           288.643752
Iteration:  6644   Dual objective     =           299.761690
Iteration:  6858   Dual objective     =           307.447757
Iteration:  7097   Dual objective     =           319.020065
Iteration:  7297   Dual objective     =           327.098896
Iteration:  7477   Dual objective     =           332.149154
Iteration:  7683   Dual objective     =           349.604564
Iteration:  7876   Dual objective     =           358.530299
Iteration:  8040   Dual objective     =           359.110474
Iteration:  8181   Dual objective     =           360.191763
Iteration:  8332   Dual objective     =           364.592661
Iteration:  8480   Dual objective     =           366.343119
Iteration:  8650   Dual objective     =           375.827194
Iteration:  8872   Dual objective     =           385.914522
Iteration:  9102   Dual objective     =           395.854194
Iteration:  9310   Dual objective     =           407.884401
Iteration:  9500   Dual objective     =           409.334465
Iteration:  9666   Dual objective     =           410.263475
Iteration:  9829   Dual objective     =           410.263677
Iteration:  9978   Dual objective     =           410.763963
Iteration: 10139   Dual objective     =           411.065255
Iteration: 10304   Dual objective     =           414.565276
Iteration: 10456   Dual objective     =           416.296870
Iteration: 10642   Dual objective     =           419.624148
Iteration: 10816   Dual objective     =           422.683888
Iteration: 10993   Dual objective     =           427.265097
Iteration: 11167   Dual objective     =           429.804767
Iteration: 11327   Dual objective     =           434.394529
Iteration: 11516   Dual objective     =           444.254450
Iteration: 11698   Dual objective     =           448.854529
Iteration: 11868   Dual objective     =           451.194617
Iteration: 12064   Dual objective     =           454.904643
Iteration: 12246   Dual objective     =           455.624671
Removing perturbation.

Barrier solved model.

Root relaxation solution time = 2.73 sec. (2221.23 ticks)

        Nodes                                         Cuts/
   Node  Left     Objective  IInf  Best Integer    Best Bound    ItCnt     Gap

*     0+    0                         1600.2640       90.6840            94.33%
Found incumbent of value 1600.264000 after 3.77 sec. (3225.28 ticks)
      0     0      550.8411  2536     1600.2640      550.8411       22   65.58%
*     0+    0                          579.9840      550.8411             5.02%
Found incumbent of value 579.984000 after 9.84 sec. (10546.41 ticks)
      0     0      551.1808  1760      579.9840      Cuts: 83     4835    4.97%
      0     0      551.5244  1747      579.9840     Cuts: 140    11000    4.91%
      0     0      551.9895  1666      579.9840     Cuts: 118    17176    4.83%
*     0+    0                          570.1340      551.9895             3.18%
Found incumbent of value 570.134000 after 16.97 sec. (18881.82 ticks)
*     0+    0                          568.1140      551.9895             2.84%
Found incumbent of value 568.114000 after 17.17 sec. (19022.76 ticks)
*     0+    0                          564.2940      551.9895             2.18%
Found incumbent of value 564.294000 after 17.42 sec. (19287.00 ticks)
      0     0  -1.00000e+75     0      564.2940      551.9895    17176    2.18%
      0     0      552.8308  1874      564.2940     Cuts: 126    22741    2.03%
      0     0      553.9040  1810      564.2940      Cuts: 79    28030    1.84%
      0     0      554.5511  1779      564.2940      Cuts: 82    32879    1.73%
      0     0      554.9185  1901      564.2940      Cuts: 74    38642    1.66%
      0     0      555.1008  1858      564.2940      Cuts: 42    42999    1.63%
      0     0      555.3929  1749      564.2940      Cuts: 62    47522    1.58%
      0     0      555.4379  1817      564.2940      Cuts: 45    52716    1.57%
      0     0      555.9015  1608      564.2940      Cuts: 16    57075    1.49%
      0     0      556.0565  1617      564.2940      Cuts: 64    61913    1.46%
      0     0      556.2140  1592      564.2940      Cuts: 46    66942    1.43%
      0     0      556.2140  1478      564.2940      Cuts: 20    72338    1.43%
      0     0      556.2140  1617      564.2940  ZeroHalf: 29    77101    1.43%
Heuristic still looking.
*     0+    0                          562.1640      556.2140             1.06%
Found incumbent of value 562.164000 after 80.45 sec. (83458.72 ticks)
*     0+    0                          560.0740      556.2140             0.69%
Found incumbent of value 560.074000 after 82.67 sec. (84686.38 ticks)
      0     0  -1.00000e+75     0      560.0740      556.2140    77101    0.69%

GUB cover cuts applied:  11
Clique cuts applied:  29
Implied bound cuts applied:  1
Mixed integer rounding cuts applied:  1
Zero-half cuts applied:  277
Lift and project cuts applied:  2
Gomory fractional cuts applied:  13

Root node processing (before b&c):
  Real time             =   82.69 sec. (84695.26 ticks)
Parallel b&c, 12 threads:
  Real time             =    0.00 sec. (0.00 ticks)
  Sync time (average)   =    0.00 sec.
  Wait time (average)   =    0.00 sec.
                          ------------
Total (root+branch&cut) =   82.69 sec. (84695.26 ticks)

--- MIP status (102): integer optimal, tolerance.
--- Cplex Time: 82.69sec (det. 84695.48 ticks)

--- Returning a primal only solution to GAMS (marginals all set to NA).
--- Fixing integer variables and solving final LP...

Version identifier: 22.1.1.0 | 2022-11-27 | 9160aff4d
CPXPARAM_Advance                                 2
CPXPARAM_MIP_Display                             4
CPXPARAM_MIP_Pool_Capacity                       0
CPXPARAM_MIP_Tolerances_AbsMIPGap                0
CPXPARAM_MIP_Tolerances_MIPGap                   0.0080000000000000002
Parallel mode: deterministic, using up to 12 threads for concurrent optimization:
 * Starting dual Simplex on 1 thread...
 * Starting Barrier on 10 threads...
 * Starting primal Simplex on 1 thread...
Tried aggregator 1 time.
LP Presolve eliminated 37819 rows and 76946 columns.
All rows and columns eliminated.
Presolve time = 0.03 sec. (35.88 ticks)

Dual simplex solved model.


--- Fixed MIP status (1): optimal.
--- Cplex Time: 0.11sec (det. 65.28 ticks)


Solution satisfies tolerances
MIP Solution:          560.074000    (77101 iterations, 0 nodes)
Final Solve:           560.074000    (0 iterations)

Best possible:         556.214000
Absolute gap:            3.860000
Relative gap:            0.006892

--- Reading solution for model optModel
--- sourceFile.gms(721) 31 Mb  83 secs
--- Executing after solve: elapsed 0:01:24.421
--- sourceFile.gms(792) 33 Mb
--- Putfile outputFileSimple C:\projects\itStud9Lp2024\gamsWorkSpace\output_s.txt
--- Putfile outputFileTable C:\projects\itStud9Lp2024\gamsWorkSpace\output_t.txt
*** Status: Normal completion
--- Job sourceFile.gms Stop 08/21/24 22:42:24 elapsed 0:01:24.441
